p cnf 430 1488
-191 -153 0
-191 50 0
-191 151 0
-191 159 0
-191 -58 0
191 153 -50 -151 -159 58 0
-192 33 0
-192 -97 0
-192 -53 0
-192 27 0
-192 155 0
192 -33 97 53 -27 -155 0
-193 -150 0
-193 -167 0
-193 -96 0
-193 -89 0
-193 48 0
193 150 167 96 89 -48 0
-194 -163 0
-194 -60 0
-194 -94 0
-194 93 0
-194 80 0
194 163 60 94 -93 -80 0
-195 -115 0
-195 172 0
-195 -123 0
-195 -2 0
-195 -175 0
195 115 -172 123 2 175 0
191 192 193 194 195 0
-196 -173 0
-196 -123 0
-196 -165 0
-196 -146 0
-196 -35 0
196 173 123 165 146 35 0
-197 -36 0
-197 -93 0
-197 148 0
-197 42 0
-197 -140 0
197 36 93 -148 -42 140 0
-198 -178 0
-198 18 0
-198 182 0
-198 90 0
-198 87 0
198 178 -18 -182 -90 -87 0
-199 -139 0
-199 57 0
-199 -70 0
-199 -7 0
-199 30 0
199 139 -57 70 7 -30 0
-200 -149 0
-200 -113 0
-200 128 0
-200 -75 0
-200 -151 0
200 149 113 -128 75 151 0
196 197 198 199 200 0
-201 -23 0
-201 -161 0
-201 -184 0
-201 126 0
-201 99 0
201 23 161 184 -126 -99 0
-202 106 0
-202 -66 0
-202 -185 0
-202 -79 0
-202 13 0
202 -106 66 185 79 -13 0
-203 90 0
-203 -104 0
-203 -55 0
-203 129 0
-203 -79 0
203 -90 104 55 -129 79 0
-204 166 0
-204 131 0
-204 -132 0
-204 69 0
-204 165 0
204 -166 -131 132 -69 -165 0
-205 78 0
-205 -32 0
-205 147 0
-205 -44 0
-205 154 0
205 -78 32 -147 44 -154 0
201 202 203 204 205 0
-206 95 0
-206 36 0
-206 -105 0
-206 86 0
-206 153 0
206 -95 -36 105 -86 -153 0
-207 -66 0
-207 128 0
-207 -133 0
-207 111 0
-207 -160 0
207 66 -128 133 -111 160 0
-208 -29 0
-208 75 0
-208 -171 0
-208 89 0
-208 -101 0
208 29 -75 171 -89 101 0
-209 -106 0
-209 -61 0
-209 -89 0
-209 23 0
-209 173 0
209 106 61 89 -23 -173 0
-210 -61 0
-210 -124 0
-210 88 0
-210 -87 0
-210 49 0
210 61 124 -88 87 -49 0
206 207 208 209 210 0
-211 -38 0
-211 -101 0
-211 -132 0
-211 -33 0
-211 164 0
211 38 101 132 33 -164 0
-212 -127 0
-212 87 0
-212 53 0
-212 103 0
-212 76 0
212 127 -87 -53 -103 -76 0
-213 83 0
-213 -134 0
-213 -142 0
-213 -148 0
-213 -70 0
213 -83 134 142 148 70 0
-214 167 0
-214 14 0
-214 156 0
-214 -25 0
-214 -88 0
214 -167 -14 -156 25 88 0
-215 127 0
-215 70 0
-215 136 0
-215 188 0
-215 24 0
215 -127 -70 -136 -188 -24 0
211 212 213 214 215 0
-216 -43 0
-216 86 0
-216 -74 0
-216 88 0
-216 172 0
216 43 -86 74 -88 -172 0
-217 -142 0
-217 23 0
-217 -170 0
-217 133 0
-217 -149 0
217 142 -23 170 -133 149 0
-218 108 0
-218 -88 0
-218 -151 0
-218 -144 0
-218 -150 0
218 -108 88 151 144 150 0
-219 -64 0
-219 -78 0
-219 66 0
-219 -40 0
-219 -60 0
219 64 78 -66 40 60 0
-220 -117 0
-220 183 0
-220 180 0
-220 -110 0
-220 108 0
220 117 -183 -180 110 -108 0
216 217 218 219 220 0
-221 -31 0
-221 140 0
-221 129 0
-221 4 0
-221 -17 0
221 31 -140 -129 -4 17 0
-222 -19 0
-222 -164 0
-222 65 0
-222 51 0
-222 176 0
222 19 164 -65 -51 -176 0
-223 -172 0
-223 90 0
-223 -102 0
-223 -166 0
-223 -141 0
223 172 -90 102 166 141 0
-224 -58 0
-224 -67 0
-224 -180 0
-224 -72 0
-224 120 0
224 58 67 180 72 -120 0
-225 93 0
-225 -138 0
-225 -184 0
-225 36 0
-225 -50 0
225 -93 138 184 -36 50 0
221 222 223 224 225 0
-226 168 0
-226 -130 0
-226 112 0
-226 -66 0
-226 -57 0
226 -168 130 -112 66 57 0
-227 50 0
-227 -97 0
-227 139 0
-227 5 0
-227 175 0
227 -50 97 -139 -5 -175 0
-228 173 0
-228 51 0
-228 21 0
-228 -133 0
-228 -129 0
228 -173 -51 -21 133 129 0
-229 162 0
-229 73 0
-229 -78 0
-229 -68 0
-229 -85 0
229 -162 -73 78 68 85 0
-230 -3 0
-230 75 0
-230 -20 0
-230 -32 0
-230 -91 0
230 3 -75 20 32 91 0
226 227 228 229 230 0
-231 -104 0
-231 132 0
-231 103 0
-231 -181 0
-231 124 0
231 104 -132 -103 181 -124 0
-232 169 0
-232 -177 0
-232 107 0
-232 -55 0
-232 112 0
232 -169 177 -107 55 -112 0
-233 -89 0
-233 -18 0
-233 117 0
-233 63 0
-233 -152 0
233 89 18 -117 -63 152 0
-234 -25 0
-234 47 0
-234 -37 0
-234 -39 0
-234 -86 0
234 25 -47 37 39 86 0
-235 123 0
-235 -112 0
-235 -129 0
-235 97 0
-235 187 0
235 -123 112 129 -97 -187 0
231 232 233 234 235 0
-236 142 0
-236 95 0
-236 108 0
-236 -33 0
-236 147 0
236 -142 -95 -108 33 -147 0
-237 143 0
-237 73 0
-237 98 0
-237 20 0
-237 36 0
237 -143 -73 -98 -20 -36 0
-238 -40 0
-238 28 0
-238 -4 0
-238 138 0
-238 174 0
238 40 -28 4 -138 -174 0
-239 -33 0
-239 21 0
-239 57 0
-239 -93 0
-239 -43 0
239 33 -21 -57 93 43 0
-240 -111 0
-240 -88 0
-240 87 0
-240 -109 0
-240 114 0
240 111 88 -87 109 -114 0
236 237 238 239 240 0
-241 -86 0
-241 -175 0
-241 -16 0
-241 -180 0
-241 169 0
241 86 175 16 180 -169 0
-242 90 0
-242 -24 0
-242 -148 0
-242 49 0
-242 25 0
242 -90 24 148 -49 -25 0
-243 139 0
-243 -166 0
-243 -92 0
-243 -27 0
-243 -141 0
243 -139 166 92 27 141 0
-244 123 0
-244 -187 0
-244 131 0
-244 148 0
-244 83 0
244 -123 187 -131 -148 -83 0
-245 23 0
-245 -53 0
-245 -130 0
-245 80 0
-245 -48 0
245 -23 53 130 -80 48 0
241 242 243 244 245 0
-246 152 0
-246 -14 0
-246 149 0
-246 -147 0
-246 95 0
246 -152 14 -149 147 -95 0
-247 180 0
-247 31 0
-247 -159 0
-247 -94 0
-247 178 0
247 -180 -31 159 94 -178 0
-248 84 0
-248 -92 0
-248 91 0
-248 148 0
-248 -135 0
248 -84 92 -91 -148 135 0
-249 -67 0
-249 -124 0
-249 121 0
-249 -27 0
-249 107 0
249 67 124 -121 27 -107 0
-250 -135 0
-250 -69 0
-250 -9 0
-250 20 0
-250 3 0
250 135 69 9 -20 -3 0
246 247 248 249 250 0
-251 97 0
-251 -83 0
-251 -52 0
-251 -6 0
-251 -60 0
251 -97 83 52 6 60 0
-252 41 0
-252 -175 0
-252 -123 0
-252 -148 0
-252 -125 0
252 -41 175 123 148 125 0
-253 100 0
-253 -156 0
-253 82 0
-253 19 0
-253 -6 0
253 -100 156 -82 -19 6 0
-254 -182 0
-254 128 0
-254 -108 0
-254 58 0
-254 19 0
254 182 -128 108 -58 -19 0
-255 -128 0
-255 -42 0
-255 -67 0
-255 -51 0
-255 27 0
255 128 42 67 51 -27 0
251 252 253 254 255 0
-256 -69 0
-256 -45 0
-256 -161 0
-256 -156 0
-256 -19 0
256 69 45 161 156 19 0
-257 78 0
-257 -87 0
-257 -21 0
-257 -139 0
-257 -130 0
257 -78 87 21 139 130 0
-258 119 0
-258 152 0
-258 34 0
-258 -190 0
-258 189 0
258 -119 -152 -34 190 -189 0
-259 -12 0
-259 95 0
-259 70 0
-259 48 0
-259 -1 0
259 12 -95 -70 -48 1 0
-260 -13 0
-260 -40 0
-260 -186 0
-260 -94 0
-260 -67 0
260 13 40 186 94 67 0
256 257 258 259 260 0
-261 66 0
-261 19 0
-261 115 0
-261 -182 0
-261 129 0
261 -66 -19 -115 182 -129 0
-262 -160 0
-262 59 0
-262 -43 0
-262 -131 0
-262 106 0
262 160 -59 43 131 -106 0
-263 -146 0
-263 170 0
-263 -91 0
-263 158 0
-263 57 0
263 146 -170 91 -158 -57 0
-264 84 0
-264 -116 0
-264 -132 0
-264 -13 0
-264 64 0
264 -84 116 132 13 -64 0
-265 -2 0
-265 4 0
-265 -93 0
-265 106 0
-265 -138 0
265 2 -4 93 -106 138 0
261 262 263 264 265 0
-266 115 0
-266 -134 0
-266 143 0
-266 78 0
-266 -107 0
266 -115 134 -143 -78 107 0
-267 130 0
-267 -182 0
-267 129 0
-267 -112 0
-267 21 0
267 -130 182 -129 112 -21 0
-268 -12 0
-268 -104 0
-268 -187 0
-268 190 0
-268 45 0
268 12 104 187 -190 -45 0
-269 -5 0
-269 42 0
-269 165 0
-269 145 0
-269 49 0
269 5 -42 -165 -145 -49 0
-270 -170 0
-270 143 0
-270 -24 0
-270 30 0
-270 -46 0
270 170 -143 24 -30 46 0
266 267 268 269 270 0
-271 74 0
-271 30 0
-271 153 0
-271 -51 0
-271 -184 0
271 -74 -30 -153 51 184 0
-272 -185 0
-272 189 0
-272 34 0
-272 -136 0
-272 163 0
272 185 -189 -34 136 -163 0
-273 -168 0
-273 101 0
-273 149 0
-273 -84 0
-273 -151 0
273 168 -101 -149 84 151 0
-274 86 0
-274 -119 0
-274 123 0
-274 109 0
-274 -170 0
274 -86 119 -123 -109 170 0
-275 -12 0
-275 11 0
-275 -169 0
-275 -65 0
-275 -70 0
275 12 -11 169 65 70 0
271 272 273 274 275 0
-276 181 0
-276 45 0
-276 -31 0
-276 -106 0
-276 -127 0
276 -181 -45 31 106 127 0
-277 27 0
-277 144 0
-277 170 0
-277 80 0
-277 190 0
277 -27 -144 -170 -80 -190 0
-278 47 0
-278 21 0
-278 188 0
-278 160 0
-278 115 0
278 -47 -21 -188 -160 -115 0
-279 116 0
-279 78 0
-279 23 0
-279 -106 0
-279 -69 0
279 -116 -78 -23 106 69 0
-280 -22 0
-280 -158 0
-280 -78 0
-280 -10 0
-280 81 0
280 22 158 78 10 -81 0
276 277 278 279 280 0
-281 -117 0
-281 60 0
-281 83 0
-281 49 0
-281 -148 0
281 117 -60 -83 -49 148 0
-282 -65 0
-282 -98 0
-282 128 0
-282 78 0
-282 -79 0
282 65 98 -128 -78 79 0
-283 87 0
-283 71 0
-283 -91 0
-283 -49 0
-283 88 0
283 -87 -71 91 49 -88 0
-284 124 0
-284 88 0
-284 -99 0
-284 -35 0
-284 80 0
284 -124 -88 99 35 -80 0
-285 -78 0
-285 188 0
-285 97 0
-285 31 0
-285 80 0
285 78 -188 -97 -31 -80 0
281 282 283 284 285 0
-286 -92 0
-286 -46 0
-286 137 0
-286 17 0
-286 -135 0
286 92 46 -137 -17 135 0
-287 186 0
-287 189 0
-287 -31 0
-287 160 0
-287 3 0
287 -186 -189 31 -160 -3 0
-288 107 0
-288 37 0
-288 18 0
-288 -30 0
-288 -94 0
288 -107 -37 -18 30 94 0
-289 -171 0
-289 24 0
-289 -179 0
-289 35 0
-289 -64 0
289 171 -24 179 -35 64 0
-290 -69 0
-290 49 0
-290 -110 0
-290 -4 0
-290 -7 0
290 69 -49 110 4 7 0
286 287 288 289 290 0
-291 -138 0
-291 -73 0
-291 -172 0
-291 125 0
-291 -34 0
291 138 73 172 -125 34 0
-292 86 0
-292 58 0
-292 -48 0
-292 -28 0
-292 5 0
292 -86 -58 48 28 -5 0
-293 -133 0
-293 -130 0
-293 -136 0
-293 -180 0
-293 -29 0
293 133 130 136 180 29 0
-294 163 0
-294 -154 0
-294 38 0
-294 -69 0
-294 -128 0
294 -163 154 -38 69 128 0
-295 -134 0
-295 119 0
-295 46 0
-295 -93 0
-295 188 0
295 134 -119 -46 93 -188 0
291 292 293 294 295 0
-296 -57 0
-296 188 0
-296 111 0
-296 48 0
-296 -115 0
296 57 -188 -111 -48 115 0
-297 173 0
-297 -183 0
-297 87 0
-297 150 0
-297 -181 0
297 -173 183 -87 -150 181 0
-298 -106 0
-298 136 0
-298 -171 0
-298 157 0
-298 -87 0
298 106 -136 171 -157 87 0
-299 26 0
-299 -67 0
-299 92 0
-299 164 0
-299 -130 0
299 -26 67 -92 -164 130 0
-300 93 0
-300 -50 0
-300 20 0
-300 182 0
-300 -26 0
300 -93 50 -20 -182 26 0
296 297 298 299 300 0
-301 -88 0
-301 -1 0
-301 -21 0
-301 131 0
-301 -20 0
301 88 1 21 -131 20 0
-302 -30 0
-302 -157 0
-302 -46 0
-302 -61 0
-302 151 0
302 30 157 46 61 -151 0
-303 7 0
-303 143 0
-303 111 0
-303 81 0
-303 40 0
303 -7 -143 -111 -81 -40 0
-304 78 0
-304 -146 0
-304 -59 0
-304 -107 0
-304 93 0
304 -78 146 59 107 -93 0
-305 -172 0
-305 -175 0
-305 -9 0
-305 43 0
-305 -99 0
305 172 175 9 -43 99 0
301 302 303 304 305 0
-306 98 0
-306 36 0
-306 124 0
-306 143 0
-306 -82 0
306 -98 -36 -124 -143 82 0
-307 100 0
-307 -76 0
-307 69 0
-307 -97 0
-307 -10 0
307 -100 76 -69 97 10 0
-308 154 0
-308 67 0
-308 179 0
-308 131 0
-308 -180 0
308 -154 -67 -179 -131 180 0
-309 -6 0
-309 -3 0
-309 128 0
-309 34 0
-309 187 0
309 6 3 -128 -34 -187 0
-310 91 0
-310 123 0
-310 151 0
-310 161 0
-310 79 0
310 -91 -123 -151 -161 -79 0
306 307 308 309 310 0
-311 -31 0
-311 -29 0
-311 73 0
-311 -107 0
-311 126 0
311 31 29 -73 107 -126 0
-312 -95 0
-312 -23 0
-312 -18 0
-312 75 0
-312 -65 0
312 95 23 18 -75 65 0
-313 162 0
-313 -17 0
-313 -113 0
-313 -131 0
-313 -119 0
313 -162 17 113 131 119 0
-314 173 0
-314 -140 0
-314 -128 0
-314 -34 0
-314 29 0
314 -173 140 128 34 -29 0
-315 -102 0
-315 72 0
-315 -51 0
-315 34 0
-315 -91 0
315 102 -72 51 -34 91 0
311 312 313 314 315 0
-316 92 0
-316 -140 0
-316 -55 0
-316 -100 0
-316 139 0
316 -92 140 55 100 -139 0
-317 168 0
-317 79 0
-317 -7 0
-317 -89 0
-317 -87 0
317 -168 -79 7 89 87 0
-318 -49 0
-318 47 0
-318 128 0
-318 142 0
-318 -180 0
318 49 -47 -128 -142 180 0
-319 114 0
-319 27 0
-319 136 0
-319 101 0
-319 84 0
319 -114 -27 -136 -101 -84 0
-320 167 0
-320 99 0
-320 139 0
-320 106 0
-320 -10 0
320 -167 -99 -139 -106 10 0
316 317 318 319 320 0
-321 187 0
-321 -172 0
-321 89 0
-321 19 0
-321 -184 0
321 -187 172 -89 -19 184 0
-322 64 0
-322 -16 0
-322 -155 0
-322 -32 0
-322 -149 0
322 -64 16 155 32 149 0
-323 69 0
-323 -24 0
-323 -61 0
-323 105 0
-323 -189 0
323 -69 24 61 -105 189 0
-324 69 0
-324 -77 0
-324 -39 0
-324 -80 0
-324 -166 0
324 -69 77 39 80 166 0
-325 120 0
-325 -38 0
-325 97 0
-325 -119 0
-325 -7 0
325 -120 38 -97 119 7 0
321 322 323 324 325 0
-326 75 0
-326 -121 0
-326 -6 0
-326 -165 0
-326 120 0
326 -75 121 6 165 -120 0
-327 -130 0
-327 170 0
-327 -110 0
-327 -144 0
-327 67 0
327 130 -170 110 144 -67 0
-328 -100 0
-328 28 0
-328 29 0
-328 -109 0
-328 -78 0
328 100 -28 -29 109 78 0
-329 -79 0
-329 42 0
-329 117 0
-329 137 0
-329 -8 0
329 79 -42 -117 -137 8 0
-330 -60 0
-330 11 0
-330 -91 0
-330 -17 0
-330 41 0
330 60 -11 91 17 -41 0
326 327 328 329 330 0
-331 -42 0
-331 -83 0
-331 -178 0
-331 21 0
-331 -189 0
331 42 83 178 -21 189 0
-332 -3 0
-332 47 0
-332 155 0
-332 21 0
-332 -153 0
332 3 -47 -155 -21 153 0
-333 61 0
-333 -155 0
-333 -120 0
-333 -25 0
-333 -59 0
333 -61 155 120 25 59 0
-334 35 0
-334 -110 0
-334 -46 0
-334 53 0
-334 -55 0
334 -35 110 46 -53 55 0
-335 16 0
-335 154 0
-335 -64 0
-335 120 0
-335 -50 0
335 -16 -154 64 -120 50 0
331 332 333 334 335 0
-336 -148 0
-336 -104 0
-336 42 0
-336 -93 0
-336 108 0
336 148 104 -42 93 -108 0
-337 -28 0
-337 11 0
-337 115 0
-337 167 0
-337 62 0
337 28 -11 -115 -167 -62 0
-338 24 0
-338 -88 0
-338 -77 0
-338 105 0
-338 -70 0
338 -24 88 77 -105 70 0
-339 -124 0
-339 -46 0
-339 -10 0
-339 -64 0
-339 -139 0
339 124 46 10 64 139 0
-340 -43 0
-340 137 0
-340 -173 0
-340 164 0
-340 140 0
340 43 -137 173 -164 -140 0
336 337 338 339 340 0
-341 -88 0
-341 13 0
-341 -70 0
-341 -42 0
-341 -53 0
341 88 -13 70 42 53 0
-342 -75 0
-342 48 0
-342 -126 0
-342 -55 0
-342 -145 0
342 75 -48 126 55 145 0
-343 -6 0
-343 -25 0
-343 74 0
-343 147 0
-343 -159 0
343 6 25 -74 -147 159 0
-344 -44 0
-344 -164 0
-344 31 0
-344 -117 0
-344 136 0
344 44 164 -31 117 -136 0
-345 3 0
-345 39 0
-345 30 0
-345 97 0
-345 42 0
345 -3 -39 -30 -97 -42 0
341 342 343 344 345 0
-346 41 0
-346 -3 0
-346 -14 0
-346 -118 0
-346 -171 0
346 -41 3 14 118 171 0
-347 172 0
-347 -2 0
-347 -5 0
-347 -159 0
-347 -141 0
347 -172 2 5 159 141 0
-348 159 0
-348 -148 0
-348 13 0
-348 -42 0
-348 -52 0
348 -159 148 -13 42 52 0
-349 -165 0
-349 46 0
-349 -168 0
-349 -124 0
-349 121 0
349 165 -46 168 124 -121 0
-350 -184 0
-350 167 0
-350 53 0
-350 -62 0
-350 -36 0
350 184 -167 -53 62 36 0
346 347 348 349 350 0
-351 -117 0
-351 -144 0
-351 141 0
-351 -31 0
-351 78 0
351 117 144 -141 31 -78 0
-352 -101 0
-352 79 0
-352 -189 0
-352 -164 0
-352 -54 0
352 101 -79 189 164 54 0
-353 10 0
-353 -51 0
-353 67 0
-353 183 0
-353 22 0
353 -10 51 -67 -183 -22 0
-354 91 0
-354 175 0
-354 -71 0
-354 7 0
-354 -52 0
354 -91 -175 71 -7 52 0
-355 -14 0
-355 62 0
-355 119 0
-355 93 0
-355 35 0
355 14 -62 -119 -93 -35 0
351 352 353 354 355 0
-356 -181 0
-356 -42 0
-356 -164 0
-356 -105 0
-356 138 0
356 181 42 164 105 -138 0
-357 68 0
-357 157 0
-357 99 0
-357 -185 0
-357 146 0
357 -68 -157 -99 185 -146 0
-358 138 0
-358 82 0
-358 93 0
-358 -158 0
-358 -4 0
358 -138 -82 -93 158 4 0
-359 -32 0
-359 -69 0
-359 106 0
-359 -23 0
-359 137 0
359 32 69 -106 23 -137 0
-360 -146 0
-360 -168 0
-360 94 0
-360 -129 0
-360 125 0
360 146 168 -94 129 -125 0
356 357 358 359 360 0
-361 -159 0
-361 43 0
-361 -94 0
-361 1 0
-361 111 0
361 159 -43 94 -1 -111 0
-362 -74 0
-362 -40 0
-362 -13 0
-362 -8 0
-362 164 0
362 74 40 13 8 -164 0
-363 33 0
-363 49 0
-363 -97 0
-363 147 0
-363 133 0
363 -33 -49 97 -147 -133 0
-364 21 0
-364 -182 0
-364 -170 0
-364 -34 0
-364 27 0
364 -21 182 170 34 -27 0
-365 -1 0
-365 -156 0
-365 -155 0
-365 46 0
-365 162 0
365 1 156 155 -46 -162 0
361 362 363 364 365 0
-366 46 0
-366 -130 0
-366 5 0
-366 -71 0
-366 -128 0
366 -46 130 -5 71 128 0
-367 -179 0
-367 -84 0
-367 -162 0
-367 160 0
-367 68 0
367 179 84 162 -160 -68 0
-368 -20 0
-368 -53 0
-368 -158 0
-368 -23 0
-368 96 0
368 20 53 158 23 -96 0
-369 87 0
-369 68 0
-369 -85 0
-369 -73 0
-369 -129 0
369 -87 -68 85 73 129 0
-370 109 0
-370 121 0
-370 -70 0
-370 129 0
-370 -65 0
370 -109 -121 70 -129 65 0
366 367 368 369 370 0
-371 16 0
-371 113 0
-371 56 0
-371 -122 0
-371 86 0
371 -16 -113 -56 122 -86 0
-372 -19 0
-372 -180 0
-372 -116 0
-372 140 0
-372 177 0
372 19 180 116 -140 -177 0
-373 -105 0
-373 23 0
-373 -137 0
-373 -34 0
-373 142 0
373 105 -23 137 34 -142 0
-374 -17 0
-374 166 0
-374 -156 0
-374 181 0
-374 -110 0
374 17 -166 156 -181 110 0
-375 -174 0
-375 56 0
-375 -183 0
-375 -107 0
-375 -68 0
375 174 -56 183 107 68 0
371 372 373 374 375 0
-376 -126 0
-376 74 0
-376 51 0
-376 183 0
-376 146 0
376 126 -74 -51 -183 -146 0
-377 -83 0
-377 -101 0
-377 -93 0
-377 -165 0
-377 37 0
377 83 101 93 165 -37 0
-378 -10 0
-378 -66 0
-378 -56 0
-378 106 0
-378 69 0
378 10 66 56 -106 -69 0
-379 -124 0
-379 -129 0
-379 -149 0
-379 -183 0
-379 -179 0
379 124 129 149 183 179 0
-380 120 0
-380 -53 0
-380 -153 0
-380 59 0
-380 -122 0
380 -120 53 153 -59 122 0
376 377 378 379 380 0
-381 115 0
-381 -86 0
-381 179 0
-381 89 0
-381 174 0
381 -115 86 -179 -89 -174 0
-382 96 0
-382 -158 0
-382 88 0
-382 179 0
-382 185 0
382 -96 158 -88 -179 -185 0
-383 -5 0
-383 86 0
-383 54 0
-383 133 0
-383 -71 0
383 5 -86 -54 -133 71 0
-384 -184 0
-384 140 0
-384 137 0
-384 -153 0
-384 176 0
384 184 -140 -137 153 -176 0
-385 72 0
-385 -113 0
-385 175 0
-385 48 0
-385 -40 0
385 -72 113 -175 -48 40 0
381 382 383 384 385 0
-386 -64 0
-386 164 0
-386 -153 0
-386 102 0
-386 96 0
386 64 -164 153 -102 -96 0
-387 37 0
-387 -98 0
-387 179 0
-387 80 0
-387 -172 0
387 -37 98 -179 -80 172 0
-388 -131 0
-388 182 0
-388 -28 0
-388 -151 0
-388 -188 0
388 131 -182 28 151 188 0
-389 -130 0
-389 -82 0
-389 -131 0
-389 -147 0
-389 11 0
389 130 82 131 147 -11 0
-390 185 0
-390 -24 0
-390 -9 0
-390 84 0
-390 -102 0
390 -185 24 9 -84 102 0
386 387 388 389 390 0
-391 134 0
-391 90 0
-391 -91 0
-391 -45 0
-391 -36 0
391 -134 -90 91 45 36 0
-392 -129 0
-392 66 0
-392 -166 0
-392 132 0
-392 185 0
392 129 -66 166 -132 -185 0
-393 23 0
-393 -6 0
-393 -126 0
-393 -84 0
-393 76 0
393 -23 6 126 84 -76 0
-394 -30 0
-394 -144 0
-394 59 0
-394 -95 0
-394 65 0
394 30 144 -59 95 -65 0
-395 166 0
-395 22 0
-395 -161 0
-395 185 0
-395 63 0
395 -166 -22 161 -185 -63 0
391 392 393 394 395 0
-396 -136 0
-396 -99 0
-396 90 0
-396 177 0
-396 -2 0
396 136 99 -90 -177 2 0
-397 -57 0
-397 2 0
-397 -83 0
-397 55 0
-397 37 0
397 57 -2 83 -55 -37 0
-398 40 0
-398 -101 0
-398 5 0
-398 33 0
-398 99 0
398 -40 101 -5 -33 -99 0
-399 -188 0
-399 -138 0
-399 170 0
-399 137 0
-399 168 0
399 188 138 -170 -137 -168 0
-400 -165 0
-400 -147 0
-400 9 0
-400 -169 0
-400 134 0
400 165 147 -9 169 -134 0
396 397 398 399 400 0
-401 -74 0
-401 -88 0
-401 115 0
-401 143 0
-401 -174 0
401 74 88 -115 -143 174 0
-402 38 0
-402 78 0
-402 -91 0
-402 -133 0
-402 -67 0
402 -38 -78 91 133 67 0
-403 138 0
-403 -9 0
-403 -83 0
-403 80 0
-403 -186 0
403 -138 9 83 -80 186 0
-404 116 0
-404 -152 0
-404 -20 0
-404 155 0
-404 77 0
404 -116 152 20 -155 -77 0
-405 80 0
-405 -84 0
-405 4 0
-405 -66 0
-405 32 0
405 -80 84 -4 66 -32 0
401 402 403 404 405 0
-406 -154 0
-406 185 0
-406 166 0
-406 15 0
-406 81 0
406 154 -185 -166 -15 -81 0
-407 -90 0
-407 -5 0
-407 27 0
-407 120 0
-407 -126 0
407 90 5 -27 -120 126 0
-408 17 0
-408 -148 0
-408 -110 0
-408 16 0
-408 177 0
408 -17 148 110 -16 -177 0
-409 24 0
-409 -99 0
-409 141 0
-409 152 0
-409 -127 0
409 -24 99 -141 -152 127 0
-410 -114 0
-410 158 0
-410 79 0
-410 -51 0
-410 110 0
410 114 -158 -79 51 -110 0
406 407 408 409 410 0
-411 122 0
-411 -71 0
-411 -91 0
-411 182 0
-411 142 0
411 -122 71 91 -182 -142 0
-412 -37 0
-412 76 0
-412 -56 0
-412 13 0
-412 106 0
412 37 -76 56 -13 -106 0
-413 -64 0
-413 -7 0
-413 144 0
-413 110 0
-413 98 0
413 64 7 -144 -110 -98 0
-414 -181 0
-414 138 0
-414 -73 0
-414 -45 0
-414 110 0
414 181 -138 73 45 -110 0
-415 -60 0
-415 118 0
-415 90 0
-415 -27 0
-415 -125 0
415 60 -118 -90 27 125 0
411 412 413 414 415 0
-416 -25 0
-416 -144 0
-416 -124 0
-416 50 0
-416 -185 0
416 25 144 124 -50 185 0
-417 190 0
-417 -71 0
-417 151 0
-417 -3 0
-417 -15 0
417 -190 71 -151 3 15 0
-418 -103 0
-418 183 0
-418 38 0
-418 -189 0
-418 -2 0
418 103 -183 -38 189 2 0
-419 107 0
-419 -159 0
-419 -20 0
-419 -99 0
-419 -142 0
419 -107 159 20 99 142 0
-420 -132 0
-420 28 0
-420 -135 0
-420 -72 0
-420 -187 0
420 132 -28 135 72 187 0
416 417 418 419 420 0
-421 140 0
-421 -179 0
-421 -5 0
-421 -62 0
-421 131 0
421 -140 179 5 62 -131 0
-422 64 0
-422 -23 0
-422 -84 0
-422 -144 0
-422 -113 0
422 -64 23 84 144 113 0
-423 -164 0
-423 -14 0
-423 65 0
-423 -71 0
-423 23 0
423 164 14 -65 71 -23 0
-424 -184 0
-424 111 0
-424 95 0
-424 -48 0
-424 -36 0
424 184 -111 -95 48 36 0
-425 -24 0
-425 -1 0
-425 151 0
-425 -61 0
-425 12 0
425 24 1 -151 61 -12 0
421 422 423 424 425 0
-426 3 0
-426 -170 0
-426 -103 0
-426 -189 0
-426 -178 0
426 -3 170 103 189 178 0
-427 -106 0
-427 -30 0
-427 58 0
-427 -171 0
-427 -43 0
427 106 30 -58 171 43 0
-428 -135 0
-428 116 0
-428 181 0
-428 -142 0
-428 41 0
428 135 -116 -181 142 -41 0
-429 24 0
-429 144 0
-429 -169 0
-429 -86 0
-429 -5 0
429 -24 -144 169 86 5 0
-430 90 0
-430 -126 0
-430 -16 0
-430 -179 0
-430 -91 0
430 -90 126 16 179 91 0
426 427 428 429 430 0
